p tw 80 188
0 1
0 2
0 3
0 33
0 73
1 2
1 3
1 29
2 3
2 5
2 24
2 31
2 55
3 32
3 39
3 69
4 5
4 6
4 7
4 68
4 78
5 6
5 7
5 24
5 31
5 55
6 7
6 9
7 10
7 18
7 19
8 9
8 10
8 42
8 43
8 44
9 10
10 18
10 19
11 12
11 34
12 46
12 57
12 65
12 66
13 14
13 15
13 19
14 15
14 16
15 17
15 18
15 27
16 17
17 18
17 27
18 19
18 27
20 21
20 22
20 29
20 30
20 31
20 32
20 33
21 22
21 55
21 62
21 68
22 28
23 24
23 30
24 31
24 55
25 26
25 51
26 52
26 60
27 71
27 72
28 62
29 30
29 31
29 32
29 33
30 31
30 32
30 33
31 32
31 33
31 55
32 33
32 39
32 69
33 73
34 43
34 65
34 67
34 75
34 77
35 36
35 71
35 78
36 72
37 38
37 39
37 54
37 58
37 64
38 39
38 59
39 69
40 41
40 47
41 48
41 67
42 43
42 44
42 74
43 44
43 65
43 67
43 75
43 77
44 66
44 76
44 79
45 46
45 47
45 48
45 56
45 63
46 47
46 48
46 57
46 65
46 66
47 48
48 67
49 50
49 61
50 53
50 70
51 52
51 53
51 54
52 53
52 54
52 60
53 54
53 70
54 58
54 64
55 62
55 68
56 57
56 58
56 59
56 63
57 58
57 59
57 65
57 66
58 59
58 64
60 64
61 63
61 70
62 68
63 70
65 66
65 67
65 75
65 77
66 76
66 79
67 75
67 77
68 78
69 73
71 72
71 78
74 75
74 76
75 76
75 77
76 79
77 79
